NAME          ClpDefau
ROWS
 N  OBJROW
 L  R_272_0
 L  R_272_1
 L  R_272_2
 L  R_272_3
 L  R_272_4
 L  R_272_5
 L  R_272_6
 L  R_272_7
 L  R_272_8
 L  R_272_9
 L  R_272_10
 L  R_272_11
 L  R_272_12
 L  R_272_13
 L  R_272_14
 L  R_272_15
 L  R_272_16
 L  R_272_17
 L  R_272_18
 L  R_272_19
 L  R_272_20
 L  R_272_21
 L  R_272_22
 L  R_272_23
 L  R_272_24
 L  R_272_25
 L  R_272_26
 L  R_272_27
 L  R_272_28
 L  R_272_29
 L  R_272_30
 L  R_272_31
COLUMNS
    x_0       OBJROW     -8.           R_272_2   3.          
    x_0       R_272_4   6.             R_272_5   9.          
    x_0       R_272_9   8.             R_272_18  7.          
    x_1       OBJROW     -12.          R_272_5   10.         
    x_1       R_272_20  6.             R_272_23  2.          
    x_1       R_272_24  1.             R_272_28  9.          
    x_1       R_272_29  5.          
    x_2       OBJROW     -11.          R_272_3   6.          
    x_2       R_272_6   2.             R_272_8   1.          
    x_2       R_272_10  3.             R_272_13  10.         
    x_2       R_272_14  4.             R_272_15  1.          
    x_2       R_272_16  10.            R_272_24  5.          
    x_3       OBJROW     -47.          R_272_0   8.          
    x_3       R_272_16  3.             R_272_17  4.          
    x_4       OBJROW     -22.          R_272_0   1.          
    x_4       R_272_2   9.             R_272_5   3.          
    x_4       R_272_7   1.             R_272_19  7.          
    x_4       R_272_25  2.             R_272_30  7.          
    x_4       R_272_31  5.          
    x_5       OBJROW     -95.          R_272_0   1.          
    x_5       R_272_2   8.             R_272_6   1.          
    x_5       R_272_9   8.             R_272_10  10.         
    x_5       R_272_13  6.             R_272_15  2.          
    x_5       R_272_16  10.            R_272_21  8.          
    x_6       OBJROW     -86.          R_272_12  6.          
    x_6       R_272_13  9.             R_272_14  7.          
    x_6       R_272_20  5.             R_272_25  5.          
    x_6       R_272_26  9.          
    x_7       OBJROW     -40.          R_272_1   3.          
    x_7       R_272_8   8.             R_272_14  5.          
    x_8       OBJROW     -33.          R_272_0   8.          
    x_8       R_272_4   2.             R_272_5   4.          
    x_8       R_272_10  9.             R_272_12  10.         
    x_8       R_272_16  7.             R_272_19  4.          
    x_8       R_272_26  10.         
    x_9       OBJROW     -78.          R_272_0   2.          
    x_9       R_272_10  8.             R_272_14  9.          
    x_9       R_272_16  1.             R_272_26  6.          
    x_10      OBJROW     -28.          R_272_1   4.          
    x_10      R_272_13  7.             R_272_22  8.          
    x_10      R_272_26  4.             R_272_30  3.          
    x_11      OBJROW     -78.          R_272_22  6.          
    x_11      R_272_24  3.             R_272_28  3.          
    x_12      OBJROW     -5.           R_272_8   6.          
    x_12      R_272_14  6.             R_272_23  3.          
    x_12      R_272_24  2.             R_272_27  9.          
    x_12      R_272_29  10.         
    x_13      OBJROW     -75.          R_272_0   8.          
    x_13      R_272_5   9.             R_272_13  2.          
    x_13      R_272_16  9.             R_272_18  5.          
    x_13      R_272_24  7.             R_272_26  8.          
    x_13      R_272_27  8.             R_272_31  9.          
    x_14      OBJROW     -88.          R_272_1   9.          
    x_14      R_272_7   8.             R_272_8   9.          
    x_14      R_272_9   2.             R_272_23  4.          
    x_14      R_272_24  4.          
    x_15      OBJROW     -21.          R_272_8   9.          
    x_15      R_272_12  3.             R_272_17  4.          
    x_15      R_272_20  4.             R_272_22  9.          
    x_15      R_272_25  8.             R_272_28  6.          
    x_16      OBJROW     -56.          R_272_6   5.          
    x_16      R_272_8   7.             R_272_23  8.          
    x_16      R_272_28  6.          
    x_17      OBJROW     -82.          R_272_8   1.          
    x_17      R_272_9   6.             R_272_10  9.          
    x_17      R_272_17  10.            R_272_20  7.          
    x_17      R_272_25  8.             R_272_28  5.          
    x_18      OBJROW     -51.          R_272_13  8.          
    x_18      R_272_21  9.             R_272_23  7.          
    x_18      R_272_26  9.             R_272_30  8.          
    x_19      OBJROW     -93.          R_272_1   8.          
    x_19      R_272_2   3.             R_272_5   3.          
    x_19      R_272_8   9.             R_272_11  3.          
    x_19      R_272_12  9.             R_272_20  6.          
    x_19      R_272_28  6.          
    x_20      OBJROW     -66.          R_272_2   2.          
    x_20      R_272_8   10.            R_272_9   10.         
    x_20      R_272_13  1.             R_272_15  4.          
    x_20      R_272_19  6.             R_272_20  10.         
    x_20      R_272_24  7.             R_272_25  5.          
    x_21      OBJROW     -48.          R_272_1   3.          
    x_21      R_272_12  10.            R_272_15  5.          
    x_21      R_272_30  5.          
    x_22      OBJROW     -70.          R_272_0   9.          
    x_22      R_272_11  5.             R_272_20  10.         
    x_22      R_272_23  7.             R_272_30  4.          
    x_23      OBJROW     -57.          R_272_15  8.          
    x_23      R_272_16  1.             R_272_21  6.          
    x_23      R_272_31  1.          
    x_24      OBJROW     -65.          R_272_0   7.          
    x_24      R_272_9   5.             R_272_15  4.          
    x_24      R_272_20  4.             R_272_30  8.          
    x_25      OBJROW     -35.          R_272_4   8.          
    x_25      R_272_7   4.             R_272_16  6.          
    x_25      R_272_21  8.             R_272_22  8.          
    x_26      OBJROW     -5.           R_272_3   3.          
    x_26      R_272_4   5.             R_272_6   1.          
    x_26      R_272_9   4.             R_272_14  4.          
    x_26      R_272_15  4.             R_272_16  2.          
    x_26      R_272_19  10.            R_272_20  3.          
    x_26      R_272_23  9.             R_272_27  2.          
    x_26      R_272_30  8.          
    x_27      OBJROW     -4.           R_272_3   3.          
    x_27      R_272_5   2.             R_272_9   5.          
    x_27      R_272_13  4.             R_272_18  3.          
    x_27      R_272_22  6.             R_272_28  1.          
    x_27      R_272_29  7.             R_272_30  4.          
    x_28      OBJROW     -47.          R_272_2   9.          
    x_28      R_272_5   10.            R_272_7   6.          
    x_28      R_272_8   4.             R_272_12  4.          
    x_28      R_272_13  2.             R_272_21  3.          
    x_28      R_272_24  3.             R_272_29  1.          
    x_29      OBJROW     -60.          R_272_0   1.          
    x_29      R_272_1   7.             R_272_4   5.          
    x_30      OBJROW     -41.          R_272_3   4.          
    x_30      R_272_10  2.             R_272_14  6.          
    x_30      R_272_18  9.             R_272_19  7.          
    x_31      OBJROW     -49.          R_272_1   10.         
    x_31      R_272_5   8.             R_272_6   6.          
    x_31      R_272_10  6.             R_272_11  1.          
    x_31      R_272_19  4.             R_272_20  8.          
    x_31      R_272_21  5.             R_272_22  3.          
    x_31      R_272_24  2.             R_272_27  6.          
RHS
    RHS       R_272_0   35.            R_272_1   29.         
    RHS       R_272_2   14.            R_272_3   8.          
    RHS       R_272_4   12.            R_272_5   21.         
    RHS       R_272_6   9.             R_272_7   41.         
    RHS       R_272_8   41.            R_272_9   9.          
    RHS       R_272_10  17.            R_272_11  9.          
    RHS       R_272_12  26.            R_272_13  24.         
    RHS       R_272_14  15.            R_272_15  9.          
    RHS       R_272_16  9.             R_272_17  30.         
    RHS       R_272_18  25.            R_272_19  14.         
    RHS       R_272_20  32.            R_272_21  19.         
    RHS       R_272_22  34.            R_272_23  8.          
    RHS       R_272_24  23.            R_272_25  21.         
    RHS       R_272_26  18.            R_272_27  35.         
    RHS       R_272_28  42.            R_272_29  10.         
    RHS       R_272_30  25.            R_272_31  14.         
BOUNDS
 UI BOUND     x_0       100.        
 UI BOUND     x_1       100.        
 UI BOUND     x_2       100.        
 UI BOUND     x_3       100.        
 UI BOUND     x_4       100.        
 UI BOUND     x_5       100.        
 UI BOUND     x_6       100.        
 UI BOUND     x_7       100.        
 UI BOUND     x_8       100.        
 UI BOUND     x_9       100.        
 UI BOUND     x_10      100.        
 UI BOUND     x_11      100.        
 UI BOUND     x_12      100.        
 UI BOUND     x_13      100.        
 UI BOUND     x_14      100.        
 UI BOUND     x_15      100.        
 UI BOUND     x_16      100.        
 UI BOUND     x_17      100.        
 UI BOUND     x_18      100.        
 UI BOUND     x_19      100.        
 UI BOUND     x_20      100.        
 UI BOUND     x_21      100.        
 UI BOUND     x_22      100.        
 UI BOUND     x_23      100.        
 UI BOUND     x_24      100.        
 UI BOUND     x_25      100.        
 UI BOUND     x_26      100.        
 UI BOUND     x_27      100.        
 UI BOUND     x_28      100.        
 UI BOUND     x_29      100.        
 UI BOUND     x_30      100.        
 UI BOUND     x_31      100.        
ENDATA
